p wcnf 120 144 145 
1 87 -57 0 
1 2 -1 0 
1 93 -15 0 
1 30 -53 0 
1 -14 -13 0 
1 39 55 0 
1 -32 -105 0 
1 35 -18 0 
1 50 -107 0 
1 -78 -120 0 
1 54 92 0 
1 -74 -75 0 
1 -45 -32 0 
1 -24 33 0 
1 -31 -104 0 
1 -65 39 0 
1 -77 -105 0 
1 -85 56 0 
1 69 -94 0 
1 111 -90 0 
1 -21 -33 0 
1 8 26 0 
1 -93 -118 0 
1 -79 -11 0 
1 98 -43 0 
1 -53 -39 0 
1 -9 -71 0 
1 -29 -88 0 
1 94 -61 0 
1 39 -25 0 
1 -57 -48 0 
1 -102 114 0 
1 80 2 0 
1 -75 83 0 
1 31 -58 0 
1 -71 52 0 
1 25 -15 0 
1 50 44 0 
1 -78 111 0 
1 62 52 0 
1 23 44 0 
1 93 16 0 
1 -99 -50 0 
1 45 59 0 
1 38 6 0 
1 51 -58 0 
1 -3 -40 0 
1 71 -5 0 
1 -2 -67 0 
1 74 -110 0 
1 7 -30 0 
1 -71 31 0 
1 19 98 0 
1 15 -68 0 
1 -96 -36 0 
1 61 72 0 
1 -86 -85 0 
1 -57 59 0 
1 15 -61 0 
1 55 27 0 
1 -95 -94 0 
1 -89 -1 0 
1 97 21 0 
1 -120 -7 0 
1 46 92 0 
1 116 36 0 
1 -84 105 0 
1 85 69 0 
1 -33 -72 0 
1 -76 -21 0 
1 35 26 0 
1 -18 34 0 
1 23 -34 0 
1 -107 -109 0 
1 66 63 0 
1 31 -91 0 
1 -45 -36 0 
1 -17 15 0 
1 6 30 0 
1 -23 19 0 
1 112 -33 0 
1 -80 -64 0 
1 -47 53 0 
1 107 -6 0 
1 -10 82 0 
1 113 -39 0 
1 -104 21 0 
1 -71 88 0 
1 -10 60 0 
1 -24 -75 0 
1 -20 34 0 
1 -12 -61 0 
1 -86 -6 0 
1 -103 53 0 
1 2 60 0 
1 67 -119 0 
1 113 -35 0 
1 -83 38 0 
1 16 -98 0 
1 -72 59 0 
1 -78 1 0 
1 -10 27 0 
1 -56 116 0 
1 -96 9 0 
1 103 -36 0 
1 -18 96 0 
1 -82 81 0 
1 -59 -94 0 
1 85 -47 0 
1 48 90 0 
1 115 64 0 
1 3 15 0 
1 -14 -83 0 
1 15 -109 0 
1 -63 -28 0 
1 -6 -108 0 
1 -83 86 0 
1 -102 51 0 
1 -74 105 0 
1 -46 33 0 
1 -43 71 0 
1 -10 -52 0 
1 -39 -10 0 
1 23 19 0 
1 -96 -15 0 
1 39 58 0 
1 31 -69 0 
1 69 -11 0 
1 -65 10 0 
1 25 -2 0 
1 -64 54 0 
1 -34 -8 0 
1 -73 -61 0 
1 111 -89 0 
1 5 -20 0 
1 50 -111 0 
1 115 -3 0 
1 77 -72 0 
1 -32 77 0 
1 -117 -108 0 
1 47 13 0 
1 70 -7 0 
1 81 114 0 
1 86 113 0 
